SYSTEM   = H2O_TiO2
ENMAX    = 400
ISMEAR   =  2
SIGMA = 0.05
EDIFF = 1e-6
EDIFFG = -0.05
IBRION = 2
POTIM = 0.5
NSW = 200

