TiO2+H2O                                    
   1.00000000000000     
     4.61949   0.00000    0.00000
     0.00000   4.61949    0.00000
     0.00000   0.00000   14.7788
   Ti   O  H
     2     5     2
Selective
Direct
  0.00000  0.00000  0.00000    F F F
  0.50000  0.50000  0.10000    T T T
  0.30374  0.30374  0.00000    F F F
  0.69625  0.69625  0.00000    F F F
  0.19625  0.80374  0.10000    T T T
  0.80374  0.19625  0.10000    T T T
  0.50000  0.50000  0.31500    T T T
  0.37720  0.62280  0.35881    T T T
  0.62280  0.37720  0.35881    T T T
 
